tsp_instances/TSP20/instance42.tsp
NODE_COORD_SECTION
0 195 154
1 45 187
2 172 143
3 104 95
4 26 79
5 142 53
6 9 152
7 168 18
8 24 119
9 161 21
10 156 199
11 91 129
12 90 113
13 33 37
14 178 95
15 69 102
16 114 3
17 84 30
18 90 86
19 35 41
