tsp_instances/TSP20/instance42.opt.tour
TOUR_SECTION
1
3
15
6
10
8
17
18
14
20
5
9
7
2
16
19
4
13
12
11
-1